; benchmark generated from python API
(set-info :status unknown)
(declare-fun syscall_stub_newfstatat_83_64 () (_ BitVec 64))
(declare-fun mem_c0000f45_79_992 () (_ BitVec 992))
(declare-fun mem_fffffffffffffff0_101_128 () (_ BitVec 128))
(declare-fun mem_c0001010_98_32 () (_ BitVec 32))
(declare-fun mem_0_114_128 () (_ BitVec 128))
(declare-fun mem_10_122_128 () (_ BitVec 128))
(declare-fun mem_20_133_128 () (_ BitVec 128))
(assert
 (let ((?x47 ((_ extract 31 0) syscall_stub_newfstatat_83_64)))
 (let (($x52 (bvule ?x47 (_ bv4294963200 32))))
 (not $x52))))
(assert
 (let ((?x2374 ((_ extract 839 832) mem_c0000f45_79_992)))
 (let ((?x11156 (concat (_ bv72057594037927935 56) ?x2374)))
 (let ((?x11157 (bvmul (_ bv18446744073709551615 64) ?x11156)))
 (let ((?x2427 ((_ extract 775 768) mem_c0000f45_79_992)))
 (let ((?x2419 ((_ extract 767 760) mem_c0000f45_79_992)))
 (let ((?x2429 ((_ extract 759 752) mem_c0000f45_79_992)))
 (let ((?x2417 ((_ extract 751 744) mem_c0000f45_79_992)))
 (let ((?x2410 ((_ extract 743 736) mem_c0000f45_79_992)))
 (let ((?x2411 ((_ extract 735 728) mem_c0000f45_79_992)))
 (let ((?x4124 (concat (concat ((_ extract 719 712) mem_c0000f45_79_992) ((_ extract 727 720) mem_c0000f45_79_992)) ?x2411)))
 (let ((?x3823 (concat (concat (concat (concat (concat ?x4124 ?x2410) ?x2417) ?x2429) ?x2419) ?x2427)))
 (let ((?x17565 (bvadd ?x3823 ?x11157)))
 (let ((?x17657 ((_ extract 63 63) ?x17565)))
 (let (($x17606 (= (_ bv1 1) ?x17657)))
 (not $x17606))))))))))))))))
(assert
 (let ((?x2189 ((_ extract 900 900) mem_c0000f45_79_992)))
 (= (_ bv0 1) ?x2189)))
(assert
 (let ((?x4996 ((_ extract 837 832) mem_c0000f45_79_992)))
 (let (($x3467 (bvule ?x4996 (_ bv48 6))))
 (not $x3467))))
(assert
 (let ((?x6435 ((_ extract 839 836) mem_c0000f45_79_992)))
 (= (_ bv15 4) ?x6435)))
(assert
 (let ((?x6423 ((_ extract 835 832) mem_c0000f45_79_992)))
 (let ((?x6432 (concat (_ bv0 60) ?x6423)))
 (let ((?x5362 ((_ extract 7 0) mem_fffffffffffffff0_101_128)))
 (let (($x5316 (= (_ bv10 8) ?x5362)))
 (let ((?x5427 (ite $x5316 (_ bv1 1) (_ bv0 1))))
 (let ((?x5349 ((_ extract 15 8) mem_fffffffffffffff0_101_128)))
 (let (($x5351 (= (_ bv10 8) ?x5349)))
 (let ((?x5426 (ite $x5351 (_ bv1 1) (_ bv0 1))))
 (let ((?x623 ((_ extract 23 16) mem_fffffffffffffff0_101_128)))
 (let (($x620 (= (_ bv10 8) ?x623)))
 (let ((?x5425 (ite $x620 (_ bv1 1) (_ bv0 1))))
 (let ((?x5295 ((_ extract 31 24) mem_fffffffffffffff0_101_128)))
 (let (($x5369 (= (_ bv10 8) ?x5295)))
 (let ((?x5352 (ite $x5369 (_ bv1 1) (_ bv0 1))))
 (let ((?x5409 ((_ extract 39 32) mem_fffffffffffffff0_101_128)))
 (let (($x5379 (= (_ bv10 8) ?x5409)))
 (let ((?x5304 (ite $x5379 (_ bv1 1) (_ bv0 1))))
 (let ((?x5411 ((_ extract 47 40) mem_fffffffffffffff0_101_128)))
 (let (($x597 (= (_ bv10 8) ?x5411)))
 (let ((?x5386 (ite $x597 (_ bv1 1) (_ bv0 1))))
 (let ((?x5296 ((_ extract 55 48) mem_fffffffffffffff0_101_128)))
 (let (($x5391 (= (_ bv10 8) ?x5296)))
 (let ((?x5314 (ite $x5391 (_ bv1 1) (_ bv0 1))))
 (let ((?x5303 ((_ extract 63 56) mem_fffffffffffffff0_101_128)))
 (let (($x5378 (= (_ bv10 8) ?x5303)))
 (let ((?x5298 (ite $x5378 (_ bv1 1) (_ bv0 1))))
 (let ((?x5336 ((_ extract 71 64) mem_fffffffffffffff0_101_128)))
 (let (($x5333 (= (_ bv10 8) ?x5336)))
 (let ((?x5339 (ite $x5333 (_ bv1 1) (_ bv0 1))))
 (let ((?x5326 ((_ extract 79 72) mem_fffffffffffffff0_101_128)))
 (let (($x5398 (= (_ bv10 8) ?x5326)))
 (let ((?x5376 (ite $x5398 (_ bv1 1) (_ bv0 1))))
 (let ((?x5337 ((_ extract 87 80) mem_fffffffffffffff0_101_128)))
 (let (($x5414 (= (_ bv10 8) ?x5337)))
 (let ((?x5420 (ite $x5414 (_ bv1 1) (_ bv0 1))))
 (let ((?x621 ((_ extract 95 88) mem_fffffffffffffff0_101_128)))
 (let (($x5348 (= (_ bv10 8) ?x621)))
 (let ((?x5390 (ite $x5348 (_ bv1 1) (_ bv0 1))))
 (let ((?x5359 ((_ extract 103 96) mem_fffffffffffffff0_101_128)))
 (let (($x5363 (= (_ bv10 8) ?x5359)))
 (let ((?x5325 (ite $x5363 (_ bv1 1) (_ bv0 1))))
 (let ((?x5382 ((_ extract 111 104) mem_fffffffffffffff0_101_128)))
 (let (($x5320 (= (_ bv10 8) ?x5382)))
 (let ((?x5395 (ite $x5320 (_ bv1 1) (_ bv0 1))))
 (let ((?x5353 ((_ extract 119 112) mem_fffffffffffffff0_101_128)))
 (let (($x598 (= (_ bv10 8) ?x5353)))
 (let ((?x5332 (ite $x598 (_ bv1 1) (_ bv0 1))))
 (let ((?x5309 ((_ extract 127 120) mem_fffffffffffffff0_101_128)))
 (let (($x5404 (= (_ bv10 8) ?x5309)))
 (let ((?x5417 (ite $x5404 (_ bv1 1) (_ bv0 1))))
 (let ((?x11594 (concat (concat (concat (concat (concat (_ bv0 48) ?x5417) ?x5332) ?x5395) ?x5325) ?x5390)))
 (let ((?x11608 (concat (concat (concat (concat (concat ?x11594 ?x5420) ?x5376) ?x5339) ?x5298) ?x5314)))
 (let ((?x11557 (concat (concat (concat (concat (concat ?x11608 ?x5386) ?x5304) ?x5352) ?x5425) ?x5426)))
 (let ((?x11584 (concat ?x11557 ?x5427)))
 (let ((?x11578 (bvashr ?x11584 ?x6432)))
 (let ((?x11610 ((_ extract 31 0) ?x11578)))
 (= (_ bv0 32) ?x11610))))))))))))))))))))))))))))))))))))))))))))))))))))))))))
(assert
 (let ((?x6423 ((_ extract 835 832) mem_c0000f45_79_992)))
 (let ((?x6432 (concat (_ bv0 60) ?x6423)))
 (let ((?x10865 (bvmul (_ bv18446744073709551615 64) ?x6432)))
 (let ((?x10876 (bvadd (_ bv16 64) ?x10865)))
 (let ((?x2374 ((_ extract 839 832) mem_c0000f45_79_992)))
 (let ((?x11156 (concat (_ bv72057594037927935 56) ?x2374)))
 (let ((?x11157 (bvmul (_ bv18446744073709551615 64) ?x11156)))
 (let ((?x2427 ((_ extract 775 768) mem_c0000f45_79_992)))
 (let ((?x2419 ((_ extract 767 760) mem_c0000f45_79_992)))
 (let ((?x2429 ((_ extract 759 752) mem_c0000f45_79_992)))
 (let ((?x2417 ((_ extract 751 744) mem_c0000f45_79_992)))
 (let ((?x2410 ((_ extract 743 736) mem_c0000f45_79_992)))
 (let ((?x2411 ((_ extract 735 728) mem_c0000f45_79_992)))
 (let ((?x4124 (concat (concat ((_ extract 719 712) mem_c0000f45_79_992) ((_ extract 727 720) mem_c0000f45_79_992)) ?x2411)))
 (let ((?x3823 (concat (concat (concat (concat (concat ?x4124 ?x2410) ?x2417) ?x2429) ?x2419) ?x2427)))
 (let ((?x17565 (bvadd ?x3823 ?x11157)))
 (let ((?x3615 ((_ extract 824 824) mem_c0000f45_79_992)))
 (let ((?x3589 (concat ?x3615 ?x2374)))
 (let ((?x4638 (bvmul (_ bv511 9) ?x3589)))
 (let ((?x4203 ((_ extract 760 760) mem_c0000f45_79_992)))
 (let ((?x3607 (concat ?x4203 ?x2427)))
 (let ((?x3785 (bvadd ?x3607 ?x4638)))
 (let (($x4511 (bvule ?x3785 (_ bv399 9))))
 (let ((?x17607 ((_ extract 63 9) ?x17565)))
 (let (($x17611 (= (_ bv0 55) ?x17607)))
 (let (($x17584 (and $x17611 $x4511)))
 (let ((?x17711 (ite $x17584 ?x17565 (_ bv399 64))))
 (let (($x17615 (bvule ?x17711 ?x10876)))
 (not $x17615))))))))))))))))))))))))))))))
(assert
 (let ((?x6423 ((_ extract 835 832) mem_c0000f45_79_992)))
 (let ((?x10887 (concat (_ bv1152921504606846975 60) ?x6423)))
 (let ((?x2374 ((_ extract 839 832) mem_c0000f45_79_992)))
 (let ((?x11156 (concat (_ bv72057594037927935 56) ?x2374)))
 (let ((?x11157 (bvmul (_ bv18446744073709551615 64) ?x11156)))
 (let ((?x2427 ((_ extract 775 768) mem_c0000f45_79_992)))
 (let ((?x2419 ((_ extract 767 760) mem_c0000f45_79_992)))
 (let ((?x2429 ((_ extract 759 752) mem_c0000f45_79_992)))
 (let ((?x2417 ((_ extract 751 744) mem_c0000f45_79_992)))
 (let ((?x2410 ((_ extract 743 736) mem_c0000f45_79_992)))
 (let ((?x2411 ((_ extract 735 728) mem_c0000f45_79_992)))
 (let ((?x4124 (concat (concat ((_ extract 719 712) mem_c0000f45_79_992) ((_ extract 727 720) mem_c0000f45_79_992)) ?x2411)))
 (let ((?x3823 (concat (concat (concat (concat (concat ?x4124 ?x2410) ?x2417) ?x2429) ?x2419) ?x2427)))
 (let ((?x17565 (bvadd ?x3823 ?x11157)))
 (let ((?x3615 ((_ extract 824 824) mem_c0000f45_79_992)))
 (let ((?x3589 (concat ?x3615 ?x2374)))
 (let ((?x4638 (bvmul (_ bv511 9) ?x3589)))
 (let ((?x4203 ((_ extract 760 760) mem_c0000f45_79_992)))
 (let ((?x3607 (concat ?x4203 ?x2427)))
 (let ((?x3785 (bvadd ?x3607 ?x4638)))
 (let (($x4511 (bvule ?x3785 (_ bv399 9))))
 (let ((?x17607 ((_ extract 63 9) ?x17565)))
 (let (($x17611 (= (_ bv0 55) ?x17607)))
 (let (($x17584 (and $x17611 $x4511)))
 (let ((?x17711 (ite $x17584 ?x17565 (_ bv399 64))))
 (let ((?x17597 (bvadd ?x17711 ?x10887)))
 (let ((?x17570 ((_ extract 63 7) ?x17597)))
 (= (_ bv0 57) ?x17570)))))))))))))))))))))))))))))
(assert
 (let ((?x6423 ((_ extract 835 832) mem_c0000f45_79_992)))
 (let ((?x16888 (concat (_ bv268435455 28) ?x6423)))
 (let ((?x15474 (bvmul (_ bv4294967295 32) ?x16888)))
 (let ((?x15679 (bvadd (_ bv32 32) ?x15474)))
 (let ((?x2374 ((_ extract 839 832) mem_c0000f45_79_992)))
 (let ((?x13019 (concat (_ bv16777215 24) ?x2374)))
 (let ((?x12062 (bvmul (_ bv4294967295 32) ?x13019)))
 (let ((?x2427 ((_ extract 775 768) mem_c0000f45_79_992)))
 (let ((?x2419 ((_ extract 767 760) mem_c0000f45_79_992)))
 (let ((?x21977 (concat (concat ((_ extract 751 744) mem_c0000f45_79_992) ((_ extract 759 752) mem_c0000f45_79_992)) ?x2419)))
 (let ((?x22501 (concat ?x21977 ?x2427)))
 (let ((?x15826 (bvadd ?x22501 ?x12062)))
 (let ((?x3615 ((_ extract 824 824) mem_c0000f45_79_992)))
 (let ((?x3589 (concat ?x3615 ?x2374)))
 (let ((?x4638 (bvmul (_ bv511 9) ?x3589)))
 (let ((?x4203 ((_ extract 760 760) mem_c0000f45_79_992)))
 (let ((?x3607 (concat ?x4203 ?x2427)))
 (let ((?x3785 (bvadd ?x3607 ?x4638)))
 (let (($x4511 (bvule ?x3785 (_ bv399 9))))
 (let ((?x11156 (concat (_ bv72057594037927935 56) ?x2374)))
 (let ((?x11157 (bvmul (_ bv18446744073709551615 64) ?x11156)))
 (let ((?x2429 ((_ extract 759 752) mem_c0000f45_79_992)))
 (let ((?x2417 ((_ extract 751 744) mem_c0000f45_79_992)))
 (let ((?x2410 ((_ extract 743 736) mem_c0000f45_79_992)))
 (let ((?x2411 ((_ extract 735 728) mem_c0000f45_79_992)))
 (let ((?x4124 (concat (concat ((_ extract 719 712) mem_c0000f45_79_992) ((_ extract 727 720) mem_c0000f45_79_992)) ?x2411)))
 (let ((?x3823 (concat (concat (concat (concat (concat ?x4124 ?x2410) ?x2417) ?x2429) ?x2419) ?x2427)))
 (let ((?x17565 (bvadd ?x3823 ?x11157)))
 (let ((?x17607 ((_ extract 63 9) ?x17565)))
 (let (($x17611 (= (_ bv0 55) ?x17607)))
 (let (($x17584 (and $x17611 $x4511)))
 (let ((?x15819 (ite $x17584 ?x15826 (_ bv399 32))))
 (let (($x15763 (= ?x15819 ?x15679)))
 (not $x15763)))))))))))))))))))))))))))))))))))
(assert
 (let ((?x2364 ((_ extract 831 824) mem_c0000f45_79_992)))
 (= (_ bv255 8) ?x2364)))
(assert
 (let ((?x2349 ((_ extract 823 816) mem_c0000f45_79_992)))
 (= (_ bv255 8) ?x2349)))
(assert
 (let ((?x2357 ((_ extract 815 808) mem_c0000f45_79_992)))
 (= (_ bv255 8) ?x2357)))
(assert
 (let ((?x2362 ((_ extract 807 800) mem_c0000f45_79_992)))
 (= (_ bv255 8) ?x2362)))
(assert
 (let ((?x2363 ((_ extract 799 792) mem_c0000f45_79_992)))
 (= (_ bv255 8) ?x2363)))
(assert
 (let ((?x2346 ((_ extract 791 784) mem_c0000f45_79_992)))
 (= (_ bv255 8) ?x2346)))
(assert
 (let ((?x2345 ((_ extract 783 776) mem_c0000f45_79_992)))
 (= (_ bv255 8) ?x2345)))
(assert
 (let ((?x6423 ((_ extract 835 832) mem_c0000f45_79_992)))
 (let ((?x14178 (concat (_ bv7 3) ?x6423)))
 (let ((?x14167 ((_ extract 838 832) mem_c0000f45_79_992)))
 (let ((?x14394 (bvmul (_ bv127 7) ?x14167)))
 (let ((?x13987 ((_ extract 774 768) mem_c0000f45_79_992)))
 (let ((?x14007 (bvadd ?x13987 ?x14394)))
 (let ((?x2374 ((_ extract 839 832) mem_c0000f45_79_992)))
 (let ((?x3615 ((_ extract 824 824) mem_c0000f45_79_992)))
 (let ((?x3589 (concat ?x3615 ?x2374)))
 (let ((?x4638 (bvmul (_ bv511 9) ?x3589)))
 (let ((?x2427 ((_ extract 775 768) mem_c0000f45_79_992)))
 (let ((?x4203 ((_ extract 760 760) mem_c0000f45_79_992)))
 (let ((?x3607 (concat ?x4203 ?x2427)))
 (let ((?x3785 (bvadd ?x3607 ?x4638)))
 (let (($x4511 (bvule ?x3785 (_ bv399 9))))
 (let ((?x11156 (concat (_ bv72057594037927935 56) ?x2374)))
 (let ((?x11157 (bvmul (_ bv18446744073709551615 64) ?x11156)))
 (let ((?x2419 ((_ extract 767 760) mem_c0000f45_79_992)))
 (let ((?x2429 ((_ extract 759 752) mem_c0000f45_79_992)))
 (let ((?x2417 ((_ extract 751 744) mem_c0000f45_79_992)))
 (let ((?x2410 ((_ extract 743 736) mem_c0000f45_79_992)))
 (let ((?x2411 ((_ extract 735 728) mem_c0000f45_79_992)))
 (let ((?x4124 (concat (concat ((_ extract 719 712) mem_c0000f45_79_992) ((_ extract 727 720) mem_c0000f45_79_992)) ?x2411)))
 (let ((?x3823 (concat (concat (concat (concat (concat ?x4124 ?x2410) ?x2417) ?x2429) ?x2419) ?x2427)))
 (let ((?x17565 (bvadd ?x3823 ?x11157)))
 (let ((?x17607 ((_ extract 63 9) ?x17565)))
 (let (($x17611 (= (_ bv0 55) ?x17607)))
 (let (($x17584 (and $x17611 $x4511)))
 (let ((?x17612 (ite $x17584 ?x14007 (_ bv15 7))))
 (let ((?x17567 (bvadd ?x17612 ?x14178)))
 (bvule ?x17567 (_ bv64 7)))))))))))))))))))))))))))))))))
(assert
 (let ((?x6423 ((_ extract 835 832) mem_c0000f45_79_992)))
 (let ((?x16888 (concat (_ bv268435455 28) ?x6423)))
 (let ((?x2374 ((_ extract 839 832) mem_c0000f45_79_992)))
 (let ((?x13019 (concat (_ bv16777215 24) ?x2374)))
 (let ((?x12062 (bvmul (_ bv4294967295 32) ?x13019)))
 (let ((?x2427 ((_ extract 775 768) mem_c0000f45_79_992)))
 (let ((?x2419 ((_ extract 767 760) mem_c0000f45_79_992)))
 (let ((?x21977 (concat (concat ((_ extract 751 744) mem_c0000f45_79_992) ((_ extract 759 752) mem_c0000f45_79_992)) ?x2419)))
 (let ((?x22501 (concat ?x21977 ?x2427)))
 (let ((?x15826 (bvadd ?x22501 ?x12062)))
 (let ((?x3615 ((_ extract 824 824) mem_c0000f45_79_992)))
 (let ((?x3589 (concat ?x3615 ?x2374)))
 (let ((?x4638 (bvmul (_ bv511 9) ?x3589)))
 (let ((?x4203 ((_ extract 760 760) mem_c0000f45_79_992)))
 (let ((?x3607 (concat ?x4203 ?x2427)))
 (let ((?x3785 (bvadd ?x3607 ?x4638)))
 (let (($x4511 (bvule ?x3785 (_ bv399 9))))
 (let ((?x11156 (concat (_ bv72057594037927935 56) ?x2374)))
 (let ((?x11157 (bvmul (_ bv18446744073709551615 64) ?x11156)))
 (let ((?x2429 ((_ extract 759 752) mem_c0000f45_79_992)))
 (let ((?x2417 ((_ extract 751 744) mem_c0000f45_79_992)))
 (let ((?x2410 ((_ extract 743 736) mem_c0000f45_79_992)))
 (let ((?x2411 ((_ extract 735 728) mem_c0000f45_79_992)))
 (let ((?x4124 (concat (concat ((_ extract 719 712) mem_c0000f45_79_992) ((_ extract 727 720) mem_c0000f45_79_992)) ?x2411)))
 (let ((?x3823 (concat (concat (concat (concat (concat ?x4124 ?x2410) ?x2417) ?x2429) ?x2419) ?x2427)))
 (let ((?x17565 (bvadd ?x3823 ?x11157)))
 (let ((?x17607 ((_ extract 63 9) ?x17565)))
 (let (($x17611 (= (_ bv0 55) ?x17607)))
 (let (($x17584 (and $x17611 $x4511)))
 (let ((?x15819 (ite $x17584 ?x15826 (_ bv399 32))))
 (let ((?x15770 (bvadd (bvadd (_ bv4294967264 32) ?x15819) ?x16888)))
 (let ((?x15648 ((_ extract 31 31) ?x15770)))
 (let ((?x10887 (concat (_ bv1152921504606846975 60) ?x6423)))
 (let ((?x15268 (bvadd (bvadd (_ bv18446744073709551552 64) (ite $x17584 ?x17565 (_ bv399 64))) ?x10887)))
 (let ((?x15576 ((_ extract 31 31) ?x15268)))
 (let (($x15341 (= ?x15576 ?x15648)))
 (let (($x15672 (= (_ bv1 1) ?x15576)))
 (let (($x15917 (or $x15672 $x15341)))
 (let ((?x15910 (ite $x15917 (_ bv1 1) (_ bv0 1))))
 (let (($x15945 (= ?x15648 ?x15910)))
 (not $x15945))))))))))))))))))))))))))))))))))))))))))
(assert
 (let ((?x2400 ((_ extract 719 712) mem_c0000f45_79_992)))
 (let (($x17560 (= (_ bv255 8) ?x2400)))
 (let (($x17562 (not $x17560)))
 (let ((?x2374 ((_ extract 839 832) mem_c0000f45_79_992)))
 (let ((?x2427 ((_ extract 775 768) mem_c0000f45_79_992)))
 (let (($x1152 (= ?x2427 ?x2374)))
 (let (($x4139 (not $x1152)))
 (let ((?x2411 ((_ extract 735 728) mem_c0000f45_79_992)))
 (let (($x17604 (= (_ bv255 8) ?x2411)))
 (let (($x17721 (not $x17604)))
 (let ((?x2401 ((_ extract 727 720) mem_c0000f45_79_992)))
 (let (($x17731 (= (_ bv255 8) ?x2401)))
 (let (($x17664 (not $x17731)))
 (let ((?x2417 ((_ extract 751 744) mem_c0000f45_79_992)))
 (let (($x17650 (= (_ bv255 8) ?x2417)))
 (let (($x17555 (not $x17650)))
 (let ((?x2410 ((_ extract 743 736) mem_c0000f45_79_992)))
 (let (($x17595 (= (_ bv255 8) ?x2410)))
 (let (($x17616 (not $x17595)))
 (let ((?x2419 ((_ extract 767 760) mem_c0000f45_79_992)))
 (let (($x17574 (= (_ bv255 8) ?x2419)))
 (let (($x17598 (not $x17574)))
 (let ((?x2429 ((_ extract 759 752) mem_c0000f45_79_992)))
 (let (($x17591 (= (_ bv255 8) ?x2429)))
 (let (($x17582 (not $x17591)))
 (or $x17582 $x17598 $x17616 $x17555 $x17664 $x17721 $x4139 $x17562)))))))))))))))))))))))))))
(assert
 (let (($x2293 (= (_ bv0 32) mem_c0001010_98_32)))
 (not $x2293)))
(assert
 (let ((?x15218 ((_ extract 15 8) mem_0_114_128)))
 (let (($x23022 (= (_ bv10 8) ?x15218)))
 (not $x23022))))
(assert
 (let ((?x23178 ((_ extract 7 0) mem_0_114_128)))
 (let (($x23187 (= (_ bv10 8) ?x23178)))
 (not $x23187))))
(assert
 (let ((?x15176 ((_ extract 23 16) mem_0_114_128)))
 (let (($x15261 (= (_ bv10 8) ?x15176)))
 (not $x15261))))
(assert
 (let ((?x16165 ((_ extract 31 24) mem_0_114_128)))
 (let (($x16157 (= (_ bv10 8) ?x16165)))
 (not $x16157))))
(assert
 (let ((?x15579 ((_ extract 39 32) mem_0_114_128)))
 (let (($x16176 (= (_ bv10 8) ?x15579)))
 (not $x16176))))
(assert
 (let ((?x15971 ((_ extract 47 40) mem_0_114_128)))
 (let (($x16179 (= (_ bv10 8) ?x15971)))
 (not $x16179))))
(assert
 (let ((?x15711 ((_ extract 55 48) mem_0_114_128)))
 (let (($x15716 (= (_ bv10 8) ?x15711)))
 (not $x15716))))
(assert
 (let ((?x15293 ((_ extract 63 56) mem_0_114_128)))
 (let (($x15165 (= (_ bv10 8) ?x15293)))
 (not $x15165))))
(assert
 (let ((?x13504 ((_ extract 71 64) mem_0_114_128)))
 (let (($x12999 (= (_ bv10 8) ?x13504)))
 (not $x12999))))
(assert
 (let ((?x13249 ((_ extract 79 72) mem_0_114_128)))
 (let (($x15259 (= (_ bv10 8) ?x13249)))
 (not $x15259))))
(assert
 (let ((?x13956 ((_ extract 87 80) mem_0_114_128)))
 (let (($x12952 (= (_ bv10 8) ?x13956)))
 (not $x12952))))
(assert
 (let ((?x15418 ((_ extract 95 88) mem_0_114_128)))
 (let (($x13488 (= (_ bv10 8) ?x15418)))
 (not $x13488))))
(assert
 (let ((?x15918 ((_ extract 103 96) mem_0_114_128)))
 (let (($x15552 (= (_ bv10 8) ?x15918)))
 (not $x15552))))
(assert
 (let ((?x24690 ((_ extract 111 104) mem_0_114_128)))
 (let (($x24686 (= (_ bv10 8) ?x24690)))
 (not $x24686))))
(assert
 (let ((?x24696 ((_ extract 119 112) mem_0_114_128)))
 (let (($x24693 (= (_ bv10 8) ?x24696)))
 (not $x24693))))
(assert
 (let ((?x15581 ((_ extract 127 120) mem_0_114_128)))
 (let (($x15838 (= (_ bv10 8) ?x15581)))
 (not $x15838))))
(assert
 (let ((?x27739 ((_ extract 15 8) mem_10_122_128)))
 (let (($x27748 (= (_ bv10 8) ?x27739)))
 (not $x27748))))
(assert
 (let ((?x27730 ((_ extract 7 0) mem_10_122_128)))
 (let (($x27740 (= (_ bv10 8) ?x27730)))
 (not $x27740))))
(assert
 (let ((?x27789 ((_ extract 23 16) mem_10_122_128)))
 (let (($x27751 (= (_ bv10 8) ?x27789)))
 (not $x27751))))
(assert
 (let ((?x27796 ((_ extract 31 24) mem_10_122_128)))
 (let (($x27786 (= (_ bv10 8) ?x27796)))
 (not $x27786))))
(assert
 (let ((?x27799 ((_ extract 39 32) mem_10_122_128)))
 (let (($x27788 (= (_ bv10 8) ?x27799)))
 (not $x27788))))
(assert
 (let ((?x25965 ((_ extract 47 40) mem_10_122_128)))
 (let (($x27777 (= (_ bv10 8) ?x25965)))
 (not $x27777))))
(assert
 (let ((?x26220 ((_ extract 55 48) mem_10_122_128)))
 (let (($x25978 (= (_ bv10 8) ?x26220)))
 (not $x25978))))
(assert
 (let ((?x27782 ((_ extract 63 56) mem_10_122_128)))
 (let (($x26284 (= (_ bv10 8) ?x27782)))
 (not $x26284))))
(assert
 (let ((?x26276 ((_ extract 71 64) mem_10_122_128)))
 (let (($x26508 (= (_ bv10 8) ?x26276)))
 (not $x26508))))
(assert
 (let ((?x29942 ((_ extract 79 72) mem_10_122_128)))
 (let (($x27795 (= (_ bv10 8) ?x29942)))
 (not $x27795))))
(assert
 (let ((?x27759 ((_ extract 87 80) mem_10_122_128)))
 (let (($x27716 (= (_ bv10 8) ?x27759)))
 (not $x27716))))
(assert
 (let ((?x26277 ((_ extract 95 88) mem_10_122_128)))
 (let (($x27703 (= (_ bv10 8) ?x26277)))
 (not $x27703))))
(assert
 (let ((?x27702 ((_ extract 103 96) mem_10_122_128)))
 (let (($x29728 (= (_ bv10 8) ?x27702)))
 (not $x29728))))
(assert
 (let ((?x24388 ((_ extract 111 104) mem_10_122_128)))
 (let (($x26285 (= (_ bv10 8) ?x24388)))
 (not $x26285))))
(assert
 (let ((?x27710 ((_ extract 119 112) mem_10_122_128)))
 (let (($x29931 (= (_ bv10 8) ?x27710)))
 (not $x29931))))
(assert
 (let ((?x27719 ((_ extract 127 120) mem_10_122_128)))
 (let (($x27746 (= (_ bv10 8) ?x27719)))
 (not $x27746))))
(assert
 (let ((?x6435 ((_ extract 839 836) mem_c0000f45_79_992)))
 (let ((?x2364 ((_ extract 831 824) mem_c0000f45_79_992)))
 (let ((?x2349 ((_ extract 823 816) mem_c0000f45_79_992)))
 (let ((?x2357 ((_ extract 815 808) mem_c0000f45_79_992)))
 (let ((?x2362 ((_ extract 807 800) mem_c0000f45_79_992)))
 (let ((?x2363 ((_ extract 799 792) mem_c0000f45_79_992)))
 (let ((?x593 (concat (concat ((_ extract 783 776) mem_c0000f45_79_992) ((_ extract 791 784) mem_c0000f45_79_992)) ?x2363)))
 (let ((?x4215 (concat (concat (concat (concat ?x593 ?x2362) ?x2357) ?x2349) ?x2364)))
 (let ((?x14202 (concat (concat ?x4215 ?x6435) (_ bv0 4))))
 (let ((?x28164 (bvadd ?x14202 (_ bv48 64))))
 (= (_ bv32 64) ?x28164))))))))))))
(assert
 (let ((?x34806 ((_ extract 7 0) mem_20_133_128)))
 (let (($x34812 (= (_ bv10 8) ?x34806)))
 (let ((?x35758 (ite $x34812 (_ bv1 1) (_ bv0 1))))
 (let ((?x15476 ((_ extract 15 8) mem_20_133_128)))
 (let (($x34804 (= (_ bv10 8) ?x15476)))
 (let ((?x35765 (ite $x34804 (_ bv1 1) (_ bv0 1))))
 (let ((?x35607 ((_ extract 23 16) mem_20_133_128)))
 (let (($x35594 (= (_ bv10 8) ?x35607)))
 (let ((?x35764 (ite $x35594 (_ bv1 1) (_ bv0 1))))
 (let ((?x35603 ((_ extract 31 24) mem_20_133_128)))
 (let (($x35613 (= (_ bv10 8) ?x35603)))
 (let ((?x35776 (ite $x35613 (_ bv1 1) (_ bv0 1))))
 (let ((?x35800 ((_ extract 39 32) mem_20_133_128)))
 (let (($x35801 (= (_ bv10 8) ?x35800)))
 (let ((?x35786 (ite $x35801 (_ bv1 1) (_ bv0 1))))
 (let ((?x34390 ((_ extract 47 40) mem_20_133_128)))
 (let (($x35799 (= (_ bv10 8) ?x34390)))
 (let ((?x35768 (ite $x35799 (_ bv1 1) (_ bv0 1))))
 (let ((?x34764 ((_ extract 55 48) mem_20_133_128)))
 (let (($x35356 (= (_ bv10 8) ?x34764)))
 (let ((?x35792 (ite $x35356 (_ bv1 1) (_ bv0 1))))
 (let ((?x34750 ((_ extract 63 56) mem_20_133_128)))
 (let (($x34756 (= (_ bv10 8) ?x34750)))
 (let ((?x34754 (ite $x34756 (_ bv1 1) (_ bv0 1))))
 (let ((?x34805 ((_ extract 71 64) mem_20_133_128)))
 (let (($x34714 (= (_ bv10 8) ?x34805)))
 (let ((?x35590 (ite $x34714 (_ bv1 1) (_ bv0 1))))
 (let ((?x34751 ((_ extract 79 72) mem_20_133_128)))
 (let (($x34753 (= (_ bv10 8) ?x34751)))
 (let ((?x34744 (ite $x34753 (_ bv1 1) (_ bv0 1))))
 (let ((?x34518 ((_ extract 87 80) mem_20_133_128)))
 (let (($x35220 (= (_ bv10 8) ?x34518)))
 (let ((?x35595 (ite $x35220 (_ bv1 1) (_ bv0 1))))
 (let ((?x34811 ((_ extract 95 88) mem_20_133_128)))
 (let (($x34519 (= (_ bv10 8) ?x34811)))
 (let ((?x35771 (ite $x34519 (_ bv1 1) (_ bv0 1))))
 (let ((?x34385 ((_ extract 103 96) mem_20_133_128)))
 (let (($x34757 (= (_ bv10 8) ?x34385)))
 (let ((?x35829 (ite $x34757 (_ bv1 1) (_ bv0 1))))
 (let ((?x34801 ((_ extract 111 104) mem_20_133_128)))
 (let (($x34808 (= (_ bv10 8) ?x34801)))
 (let ((?x35781 (ite $x34808 (_ bv1 1) (_ bv0 1))))
 (let ((?x35532 ((_ extract 119 112) mem_20_133_128)))
 (let (($x35789 (= (_ bv10 8) ?x35532)))
 (let ((?x35591 (ite $x35789 (_ bv1 1) (_ bv0 1))))
 (let ((?x34760 ((_ extract 127 120) mem_20_133_128)))
 (let (($x34223 (= (_ bv10 8) ?x34760)))
 (let ((?x34745 (ite $x34223 (_ bv1 1) (_ bv0 1))))
 (let ((?x35757 (concat (concat (concat (concat (concat ?x34745 ?x35591) ?x35781) ?x35829) ?x35771) ?x35595)))
 (let ((?x35746 (concat (concat (concat (concat (concat ?x35757 ?x34744) ?x35590) ?x34754) ?x35792) ?x35768)))
 (let ((?x35735 (concat (concat (concat (concat (concat ?x35746 ?x35786) ?x35776) ?x35764) ?x35765) ?x35758)))
 (and (distinct (_ bv0 16) ?x35735) true)))))))))))))))))))))))))))))))))))))))))))))))))))))
(assert
 (let ((?x34806 ((_ extract 7 0) mem_20_133_128)))
 (let (($x34812 (= (_ bv10 8) ?x34806)))
 (let ((?x35758 (ite $x34812 (_ bv1 1) (_ bv0 1))))
 (let ((?x15476 ((_ extract 15 8) mem_20_133_128)))
 (let (($x34804 (= (_ bv10 8) ?x15476)))
 (let ((?x35765 (ite $x34804 (_ bv1 1) (_ bv0 1))))
 (let ((?x35607 ((_ extract 23 16) mem_20_133_128)))
 (let (($x35594 (= (_ bv10 8) ?x35607)))
 (let ((?x35764 (ite $x35594 (_ bv1 1) (_ bv0 1))))
 (let ((?x35603 ((_ extract 31 24) mem_20_133_128)))
 (let (($x35613 (= (_ bv10 8) ?x35603)))
 (let ((?x35776 (ite $x35613 (_ bv1 1) (_ bv0 1))))
 (let ((?x35800 ((_ extract 39 32) mem_20_133_128)))
 (let (($x35801 (= (_ bv10 8) ?x35800)))
 (let ((?x35786 (ite $x35801 (_ bv1 1) (_ bv0 1))))
 (let ((?x34390 ((_ extract 47 40) mem_20_133_128)))
 (let (($x35799 (= (_ bv10 8) ?x34390)))
 (let ((?x35768 (ite $x35799 (_ bv1 1) (_ bv0 1))))
 (let ((?x34764 ((_ extract 55 48) mem_20_133_128)))
 (let (($x35356 (= (_ bv10 8) ?x34764)))
 (let ((?x35792 (ite $x35356 (_ bv1 1) (_ bv0 1))))
 (let ((?x34750 ((_ extract 63 56) mem_20_133_128)))
 (let (($x34756 (= (_ bv10 8) ?x34750)))
 (let ((?x34754 (ite $x34756 (_ bv1 1) (_ bv0 1))))
 (let ((?x34805 ((_ extract 71 64) mem_20_133_128)))
 (let (($x34714 (= (_ bv10 8) ?x34805)))
 (let ((?x35590 (ite $x34714 (_ bv1 1) (_ bv0 1))))
 (let ((?x34751 ((_ extract 79 72) mem_20_133_128)))
 (let (($x34753 (= (_ bv10 8) ?x34751)))
 (let ((?x34744 (ite $x34753 (_ bv1 1) (_ bv0 1))))
 (let ((?x34518 ((_ extract 87 80) mem_20_133_128)))
 (let (($x35220 (= (_ bv10 8) ?x34518)))
 (let ((?x35595 (ite $x35220 (_ bv1 1) (_ bv0 1))))
 (let ((?x34811 ((_ extract 95 88) mem_20_133_128)))
 (let (($x34519 (= (_ bv10 8) ?x34811)))
 (let ((?x35771 (ite $x34519 (_ bv1 1) (_ bv0 1))))
 (let ((?x34385 ((_ extract 103 96) mem_20_133_128)))
 (let (($x34757 (= (_ bv10 8) ?x34385)))
 (let ((?x35829 (ite $x34757 (_ bv1 1) (_ bv0 1))))
 (let ((?x34801 ((_ extract 111 104) mem_20_133_128)))
 (let (($x34808 (= (_ bv10 8) ?x34801)))
 (let ((?x35781 (ite $x34808 (_ bv1 1) (_ bv0 1))))
 (let ((?x35532 ((_ extract 119 112) mem_20_133_128)))
 (let (($x35789 (= (_ bv10 8) ?x35532)))
 (let ((?x35591 (ite $x35789 (_ bv1 1) (_ bv0 1))))
 (let ((?x42274 (concat (concat (_ bv0 16) (ite (= (_ bv10 8) ((_ extract 127 120) mem_20_133_128)) (_ bv1 1) (_ bv0 1))) ?x35591)))
 (let ((?x42525 (concat (concat (concat (concat (concat ?x42274 ?x35781) ?x35829) ?x35771) ?x35595) ?x34744)))
 (let ((?x42442 (concat (concat (concat (concat (concat ?x42525 ?x35590) ?x34754) ?x35792) ?x35768) ?x35786)))
 (let ((?x42829 (concat (concat (concat (concat ?x42442 ?x35776) ?x35764) ?x35765) ?x35758)))
 (let ((?x42112 ((_ zero_extend 32) ?x42829)))
 (let ((?x34760 ((_ extract 127 120) mem_20_133_128)))
 (let (($x34223 (= (_ bv10 8) ?x34760)))
 (let ((?x42533 (ite $x34223 (_ bv15 64) (_ bv64 64))))
 (let ((?x41382 (ite $x35789 (_ bv14 64) ?x42533)))
 (let ((?x42445 (ite $x34808 (_ bv13 64) ?x41382)))
 (let ((?x41023 (ite $x34757 (_ bv12 64) ?x42445)))
 (let ((?x42237 (ite $x34519 (_ bv11 64) ?x41023)))
 (let ((?x41880 (ite $x35220 (_ bv10 64) ?x42237)))
 (let ((?x42072 (ite $x34753 (_ bv9 64) ?x41880)))
 (let ((?x40884 (ite $x34714 (_ bv8 64) ?x42072)))
 (let ((?x42292 (ite $x34756 (_ bv7 64) ?x40884)))
 (let ((?x38153 (ite $x35356 (_ bv6 64) ?x42292)))
 (let ((?x41344 (ite $x35799 (_ bv5 64) ?x38153)))
 (let ((?x42655 (ite $x35801 (_ bv4 64) ?x41344)))
 (let ((?x41872 (ite $x35613 (_ bv3 64) ?x42655)))
 (let ((?x42469 (ite $x35594 (_ bv2 64) ?x41872)))
 (let ((?x42426 (ite $x34804 (_ bv1 64) ?x42469)))
 (let ((?x42816 (ite $x34812 (_ bv0 64) ?x42426)))
 (let (($x40446 (and (distinct (_ bv0 32) ?x42829) true)))
 (let ((?x42171 (ite $x40446 ?x42816 ?x42112)))
 (let ((?x41213 ((_ extract 31 0) ?x42171)))
 (let ((?x39732 ((_ zero_extend 32) ?x41213)))
 (let ((?x6423 ((_ extract 835 832) mem_c0000f45_79_992)))
 (let ((?x16888 (concat (_ bv268435455 28) ?x6423)))
 (let ((?x2374 ((_ extract 839 832) mem_c0000f45_79_992)))
 (let ((?x2364 ((_ extract 831 824) mem_c0000f45_79_992)))
 (let ((?x3769 (concat (concat ((_ extract 815 808) mem_c0000f45_79_992) ((_ extract 823 816) mem_c0000f45_79_992)) ?x2364)))
 (let ((?x3590 (concat ?x3769 ?x2374)))
 (let ((?x21976 (bvmul (_ bv4294967295 32) ?x3590)))
 (let ((?x2427 ((_ extract 775 768) mem_c0000f45_79_992)))
 (let ((?x2419 ((_ extract 767 760) mem_c0000f45_79_992)))
 (let ((?x21977 (concat (concat ((_ extract 751 744) mem_c0000f45_79_992) ((_ extract 759 752) mem_c0000f45_79_992)) ?x2419)))
 (let ((?x22501 (concat ?x21977 ?x2427)))
 (let ((?x22517 (bvadd ?x22501 ?x21976)))
 (let ((?x3615 ((_ extract 824 824) mem_c0000f45_79_992)))
 (let ((?x3589 (concat ?x3615 ?x2374)))
 (let ((?x4638 (bvmul (_ bv511 9) ?x3589)))
 (let ((?x4203 ((_ extract 760 760) mem_c0000f45_79_992)))
 (let ((?x3607 (concat ?x4203 ?x2427)))
 (let ((?x3785 (bvadd ?x3607 ?x4638)))
 (let (($x4511 (bvule ?x3785 (_ bv399 9))))
 (let ((?x2349 ((_ extract 823 816) mem_c0000f45_79_992)))
 (let ((?x2357 ((_ extract 815 808) mem_c0000f45_79_992)))
 (let ((?x2362 ((_ extract 807 800) mem_c0000f45_79_992)))
 (let ((?x2363 ((_ extract 799 792) mem_c0000f45_79_992)))
 (let ((?x593 (concat (concat ((_ extract 783 776) mem_c0000f45_79_992) ((_ extract 791 784) mem_c0000f45_79_992)) ?x2363)))
 (let ((?x4215 (concat (concat (concat (concat ?x593 ?x2362) ?x2357) ?x2349) ?x2364)))
 (let ((?x3812 (concat ?x4215 ?x2374)))
 (let ((?x3646 (bvmul (_ bv18446744073709551615 64) ?x3812)))
 (let ((?x2429 ((_ extract 759 752) mem_c0000f45_79_992)))
 (let ((?x2417 ((_ extract 751 744) mem_c0000f45_79_992)))
 (let ((?x2410 ((_ extract 743 736) mem_c0000f45_79_992)))
 (let ((?x2411 ((_ extract 735 728) mem_c0000f45_79_992)))
 (let ((?x4124 (concat (concat ((_ extract 719 712) mem_c0000f45_79_992) ((_ extract 727 720) mem_c0000f45_79_992)) ?x2411)))
 (let ((?x3823 (concat (concat (concat (concat (concat ?x4124 ?x2410) ?x2417) ?x2429) ?x2419) ?x2427)))
 (let ((?x3827 (bvadd ?x3823 ?x3646)))
 (let ((?x4614 ((_ extract 63 9) ?x3827)))
 (let (($x4610 (= (_ bv0 55) ?x4614)))
 (let (($x4615 (and $x4610 $x4511)))
 (let ((?x22206 (ite $x4615 ?x22517 (_ bv399 32))))
 (let ((?x12985 (bvadd (bvadd (_ bv4294967264 32) ?x22206) ?x16888)))
 (let ((?x42099 (concat (_ bv0 32) ?x12985)))
 (bvugt ?x42099 ?x39732))))))))))))))))))))))))))))))))))))))))))))))))))))))))))))))))))))))))))))))))))))))))))))))))))))))))))))))))))
(assert
 (let ((?x34760 ((_ extract 127 120) mem_20_133_128)))
 (let (($x34223 (= (_ bv10 8) ?x34760)))
 (let ((?x47737 (ite $x34223 (_ bv15 32) (_ bv64 32))))
 (let ((?x35532 ((_ extract 119 112) mem_20_133_128)))
 (let (($x35789 (= (_ bv10 8) ?x35532)))
 (let ((?x48776 (ite $x35789 (_ bv14 32) ?x47737)))
 (let ((?x34801 ((_ extract 111 104) mem_20_133_128)))
 (let (($x34808 (= (_ bv10 8) ?x34801)))
 (let ((?x49692 (ite $x34808 (_ bv13 32) ?x48776)))
 (let ((?x34385 ((_ extract 103 96) mem_20_133_128)))
 (let (($x34757 (= (_ bv10 8) ?x34385)))
 (let ((?x49975 (ite $x34757 (_ bv12 32) ?x49692)))
 (let ((?x34811 ((_ extract 95 88) mem_20_133_128)))
 (let (($x34519 (= (_ bv10 8) ?x34811)))
 (let ((?x50172 (ite $x34519 (_ bv11 32) ?x49975)))
 (let ((?x34518 ((_ extract 87 80) mem_20_133_128)))
 (let (($x35220 (= (_ bv10 8) ?x34518)))
 (let ((?x47388 (ite $x35220 (_ bv10 32) ?x50172)))
 (let ((?x34751 ((_ extract 79 72) mem_20_133_128)))
 (let (($x34753 (= (_ bv10 8) ?x34751)))
 (let ((?x46846 (ite $x34753 (_ bv9 32) ?x47388)))
 (let ((?x34805 ((_ extract 71 64) mem_20_133_128)))
 (let (($x34714 (= (_ bv10 8) ?x34805)))
 (let ((?x48841 (ite $x34714 (_ bv8 32) ?x46846)))
 (let ((?x34750 ((_ extract 63 56) mem_20_133_128)))
 (let (($x34756 (= (_ bv10 8) ?x34750)))
 (let ((?x48887 (ite $x34756 (_ bv7 32) ?x48841)))
 (let ((?x34764 ((_ extract 55 48) mem_20_133_128)))
 (let (($x35356 (= (_ bv10 8) ?x34764)))
 (let ((?x49935 (ite $x35356 (_ bv6 32) ?x48887)))
 (let ((?x34390 ((_ extract 47 40) mem_20_133_128)))
 (let (($x35799 (= (_ bv10 8) ?x34390)))
 (let ((?x50314 (ite $x35799 (_ bv5 32) ?x49935)))
 (let ((?x35800 ((_ extract 39 32) mem_20_133_128)))
 (let (($x35801 (= (_ bv10 8) ?x35800)))
 (let ((?x49005 (ite $x35801 (_ bv4 32) ?x50314)))
 (let ((?x35603 ((_ extract 31 24) mem_20_133_128)))
 (let (($x35613 (= (_ bv10 8) ?x35603)))
 (let ((?x49703 (ite $x35613 (_ bv3 32) ?x49005)))
 (let ((?x35607 ((_ extract 23 16) mem_20_133_128)))
 (let (($x35594 (= (_ bv10 8) ?x35607)))
 (let ((?x50538 (ite $x35594 (_ bv2 32) ?x49703)))
 (let ((?x15476 ((_ extract 15 8) mem_20_133_128)))
 (let (($x34804 (= (_ bv10 8) ?x15476)))
 (let ((?x49125 (ite $x34804 (_ bv1 32) ?x50538)))
 (let ((?x34806 ((_ extract 7 0) mem_20_133_128)))
 (let (($x34812 (= (_ bv10 8) ?x34806)))
 (let ((?x49717 (ite $x34812 (_ bv0 32) ?x49125)))
 (let ((?x35758 (ite $x34812 (_ bv1 1) (_ bv0 1))))
 (let ((?x35765 (ite $x34804 (_ bv1 1) (_ bv0 1))))
 (let ((?x35764 (ite $x35594 (_ bv1 1) (_ bv0 1))))
 (let ((?x35776 (ite $x35613 (_ bv1 1) (_ bv0 1))))
 (let ((?x35786 (ite $x35801 (_ bv1 1) (_ bv0 1))))
 (let ((?x35768 (ite $x35799 (_ bv1 1) (_ bv0 1))))
 (let ((?x35792 (ite $x35356 (_ bv1 1) (_ bv0 1))))
 (let ((?x34754 (ite $x34756 (_ bv1 1) (_ bv0 1))))
 (let ((?x35590 (ite $x34714 (_ bv1 1) (_ bv0 1))))
 (let ((?x34744 (ite $x34753 (_ bv1 1) (_ bv0 1))))
 (let ((?x35595 (ite $x35220 (_ bv1 1) (_ bv0 1))))
 (let ((?x35771 (ite $x34519 (_ bv1 1) (_ bv0 1))))
 (let ((?x35829 (ite $x34757 (_ bv1 1) (_ bv0 1))))
 (let ((?x35781 (ite $x34808 (_ bv1 1) (_ bv0 1))))
 (let ((?x42515 (concat (concat (concat (_ bv0 16) (ite $x34223 (_ bv1 1) (_ bv0 1))) (ite $x35789 (_ bv1 1) (_ bv0 1))) ?x35781)))
 (let ((?x42428 (concat (concat (concat (concat (concat ?x42515 ?x35829) ?x35771) ?x35595) ?x34744) ?x35590)))
 (let ((?x42812 (concat (concat (concat (concat (concat ?x42428 ?x34754) ?x35792) ?x35768) ?x35786) ?x35776)))
 (let ((?x42829 (concat (concat (concat ?x42812 ?x35764) ?x35765) ?x35758)))
 (let (($x49879 (not $x34223)))
 (let (($x49558 (not $x35789)))
 (let (($x54457 (not $x34808)))
 (let (($x54476 (not $x34757)))
 (let (($x54489 (not $x34519)))
 (let (($x54508 (not $x35220)))
 (let (($x54521 (not $x34753)))
 (let (($x54473 (not $x34714)))
 (let (($x54505 (not $x34756)))
 (let (($x54524 (not $x35356)))
 (let (($x54492 (not $x35799)))
 (let (($x53756 (not $x35801)))
 (let (($x53768 (not $x35613)))
 (let (($x53780 (not $x35594)))
 (let (($x53912 (not $x34804)))
 (let (($x47488 (not $x34812)))
 (let (($x49220 (and $x47488 $x53912 $x53780 $x53768 $x53756 $x54492 $x54524 $x54505 $x54473 $x54521 $x54508 $x54489 $x54476 $x54457 $x49558 $x49879)))
 (let ((?x48950 (ite $x49220 ?x42829 ?x49717)))
 (let ((?x50596 (concat (_ bv0 32) ?x48950)))
 (let ((?x6435 ((_ extract 839 836) mem_c0000f45_79_992)))
 (let ((?x2364 ((_ extract 831 824) mem_c0000f45_79_992)))
 (let ((?x2349 ((_ extract 823 816) mem_c0000f45_79_992)))
 (let ((?x2357 ((_ extract 815 808) mem_c0000f45_79_992)))
 (let ((?x2362 ((_ extract 807 800) mem_c0000f45_79_992)))
 (let ((?x2363 ((_ extract 799 792) mem_c0000f45_79_992)))
 (let ((?x593 (concat (concat ((_ extract 783 776) mem_c0000f45_79_992) ((_ extract 791 784) mem_c0000f45_79_992)) ?x2363)))
 (let ((?x4215 (concat (concat (concat (concat ?x593 ?x2362) ?x2357) ?x2349) ?x2364)))
 (let ((?x14202 (concat (concat ?x4215 ?x6435) (_ bv0 4))))
 (let ((?x58919 (bvadd (_ bv48 64) ?x14202)))
 (let ((?x55351 (bvadd ?x58919 ?x50596)))
 (and (distinct (_ bv0 64) ?x55351) true))))))))))))))))))))))))))))))))))))))))))))))))))))))))))))))))))))))))))))))))))))))))))))))))))
(minimize syscall_stub_newfstatat_83_64)
(maximize mem_20_133_128)
(minimize mem_20_133_128)
(minimize mem_c0000f45_79_992)
(maximize mem_fffffffffffffff0_101_128)
(maximize mem_10_122_128)
(minimize mem_10_122_128)
(minimize mem_fffffffffffffff0_101_128)
(minimize mem_c0001010_98_32)
(maximize syscall_stub_newfstatat_83_64)
(maximize mem_0_114_128)
(check-sat)
(get-objectives)
